p cnf 807 604
c p distribution  0.875 0.125
c p distribution  0.875 0.125
c p distribution  0.875 0.125
c p distribution  0.875 0.125
c p distribution  0.875 0.125
c p distribution  0.875 0.125
c p distribution  0.875 0.125
c p distribution  0.875 0.125
c p distribution  0.875 0.125
c p distribution  0.875 0.125
c p distribution  0.875 0.125
c p distribution  0.875 0.125
c p distribution  0.875 0.125
c p distribution  0.875 0.125
c p distribution  0.875 0.125
c p distribution  0.875 0.125
c p distribution  0.875 0.125
c p distribution  0.875 0.125
c p distribution  0.875 0.125
c p distribution  0.875 0.125
c p distribution  0.875 0.125
c p distribution  0.875 0.125
c p distribution  0.875 0.125
c p distribution  0.875 0.125
c p distribution  0.875 0.125
c p distribution  0.875 0.125
c p distribution  0.875 0.125
c p distribution  0.875 0.125
c p distribution  0.875 0.125
c p distribution  0.875 0.125
c p distribution  0.875 0.125
c p distribution  0.875 0.125
c p distribution  0.875 0.125
c p distribution  0.875 0.125
c p distribution  0.875 0.125
c p distribution  0.875 0.125
c p distribution  0.875 0.125
c p distribution  0.875 0.125
c p distribution  0.875 0.125
c p distribution  0.875 0.125
c p distribution  0.875 0.125
c p distribution  0.875 0.125
c p distribution  0.875 0.125
c p distribution  0.875 0.125
c p distribution  0.875 0.125
c p distribution  0.875 0.125
c p distribution  0.875 0.125
c p distribution  0.875 0.125
c p distribution  0.875 0.125
c p distribution  0.875 0.125
c p distribution  0.875 0.125
c p distribution  0.875 0.125
c p distribution  0.875 0.125
c p distribution  0.875 0.125
c p distribution  0.875 0.125
c p distribution  0.875 0.125
c p distribution  0.875 0.125
c p distribution  0.875 0.125
c p distribution  0.875 0.125
c p distribution  0.875 0.125
c p distribution  0.875 0.125
c p distribution  0.875 0.125
c p distribution  0.875 0.125
c p distribution  0.875 0.125
c p distribution  0.875 0.125
c p distribution  0.875 0.125
c p distribution  0.875 0.125
c p distribution  0.875 0.125
c p distribution  0.875 0.125
c p distribution  0.875 0.125
c p distribution  0.875 0.125
c p distribution  0.875 0.125
c p distribution  0.875 0.125
c p distribution  0.875 0.125
c p distribution  0.875 0.125
c p distribution  0.875 0.125
c p distribution  0.875 0.125
c p distribution  0.875 0.125
c p distribution  0.875 0.125
c p distribution  0.875 0.125
c p distribution  0.875 0.125
c p distribution  0.875 0.125
c p distribution  0.875 0.125
c p distribution  0.875 0.125
c p distribution  0.875 0.125
c p distribution  0.875 0.125
c p distribution  0.875 0.125
c p distribution  0.875 0.125
c p distribution  0.875 0.125
c p distribution  0.875 0.125
c p distribution  0.875 0.125
c p distribution  0.875 0.125
c p distribution  0.875 0.125
c p distribution  0.875 0.125
c p distribution  0.875 0.125
c p distribution  0.875 0.125
c p distribution  0.875 0.125
c p distribution  0.875 0.125
c p distribution  0.875 0.125
c p distribution  0.875 0.125
c p distribution  0.875 0.125
c p distribution  0.875 0.125
c p distribution  0.875 0.125
c p distribution  0.875 0.125
c p distribution  0.875 0.125
c p distribution  0.875 0.125
c p distribution  0.875 0.125
c p distribution  0.875 0.125
c p distribution  0.875 0.125
c p distribution  0.875 0.125
c p distribution  0.875 0.125
c p distribution  0.875 0.125
c p distribution  0.875 0.125
c p distribution  0.875 0.125
c p distribution  0.875 0.125
c p distribution  0.875 0.125
c p distribution  0.875 0.125
c p distribution  0.875 0.125
c p distribution  0.875 0.125
c p distribution  0.875 0.125
c p distribution  0.875 0.125
c p distribution  0.875 0.125
c p distribution  0.875 0.125
c p distribution  0.875 0.125
c p distribution  0.875 0.125
c p distribution  0.875 0.125
c p distribution  0.875 0.125
c p distribution  0.875 0.125
c p distribution  0.875 0.125
c p distribution  0.875 0.125
c p distribution  0.875 0.125
c p distribution  0.875 0.125
c p distribution  0.875 0.125
c p distribution  0.875 0.125
c p distribution  0.875 0.125
c p distribution  0.875 0.125
c p distribution  0.875 0.125
c p distribution  0.875 0.125
c p distribution  0.875 0.125
c p distribution  0.875 0.125
c p distribution  0.875 0.125
c p distribution  0.875 0.125
c p distribution  0.875 0.125
c p distribution  0.875 0.125
c p distribution  0.875 0.125
c p distribution  0.875 0.125
c p distribution  0.875 0.125
c p distribution  0.875 0.125
c p distribution  0.875 0.125
c p distribution  0.875 0.125
c p distribution  0.875 0.125
c p distribution  0.875 0.125
c p distribution  0.875 0.125
c p distribution  0.875 0.125
c p distribution  0.875 0.125
c p distribution  0.875 0.125
c p distribution  0.875 0.125
c p distribution  0.875 0.125
c p distribution  0.875 0.125
c p distribution  0.875 0.125
c p distribution  0.875 0.125
c p distribution  0.875 0.125
c p distribution  0.875 0.125
c p distribution  0.875 0.125
c p distribution  0.875 0.125
c p distribution  0.875 0.125
c p distribution  0.875 0.125
c p distribution  0.875 0.125
c p distribution  0.875 0.125
c p distribution  0.875 0.125
c p distribution  0.875 0.125
c p distribution  0.875 0.125
c p distribution  0.875 0.125
c p distribution  0.875 0.125
c p distribution  0.875 0.125
c p distribution  0.875 0.125
c p distribution  0.875 0.125
c p distribution  0.875 0.125
c p distribution  0.875 0.125
c p distribution  0.875 0.125
c p distribution  0.875 0.125
c p distribution  0.875 0.125
c p distribution  0.875 0.125
c p distribution  0.875 0.125
c p distribution  0.875 0.125
c p distribution  0.875 0.125
c p distribution  0.875 0.125
c p distribution  0.875 0.125
c p distribution  0.875 0.125
c p distribution  0.875 0.125
c p distribution  0.875 0.125
c p distribution  0.875 0.125
c p distribution  0.875 0.125
c p distribution  0.875 0.125
c p distribution  0.875 0.125
c p distribution  0.875 0.125
c p distribution  0.875 0.125
c p distribution  0.875 0.125
c p distribution  0.875 0.125
c p distribution  0.875 0.125
c p distribution  0.875 0.125
c p distribution  0.875 0.125
c p distribution  0.875 0.125
c p distribution  0.875 0.125
c p distribution  0.875 0.125
c p distribution  0.875 0.125
c p distribution  0.875 0.125
c p distribution  0.875 0.125
c p distribution  0.875 0.125
c p distribution  0.875 0.125
c p distribution  0.875 0.125
c p distribution  0.875 0.125
c p distribution  0.875 0.125
c p distribution  0.875 0.125
c p distribution  0.875 0.125
c p distribution  0.875 0.125
c p distribution  0.875 0.125
c p distribution  0.875 0.125
c p distribution  0.875 0.125
c p distribution  0.875 0.125
c p distribution  0.875 0.125
c p distribution  0.875 0.125
c p distribution  0.875 0.125
c p distribution  0.875 0.125
c p distribution  0.875 0.125
c p distribution  0.875 0.125
c p distribution  0.875 0.125
c p distribution  0.875 0.125
c p distribution  0.875 0.125
c p distribution  0.875 0.125
c p distribution  0.875 0.125
c p distribution  0.875 0.125
c p distribution  0.875 0.125
c p distribution  0.875 0.125
c p distribution  0.875 0.125
c p distribution  0.875 0.125
c p distribution  0.875 0.125
c p distribution  0.875 0.125
c p distribution  0.875 0.125
c p distribution  0.875 0.125
c p distribution  0.875 0.125
c p distribution  0.875 0.125
c p distribution  0.875 0.125
c p distribution  0.875 0.125
c p distribution  0.875 0.125
c p distribution  0.875 0.125
c p distribution  0.875 0.125
c p distribution  0.875 0.125
c p distribution  0.875 0.125
c p distribution  0.875 0.125
c p distribution  0.875 0.125
c p distribution  0.875 0.125
c p distribution  0.875 0.125
c p distribution  0.875 0.125
c p distribution  0.875 0.125
c p distribution  0.875 0.125
c p distribution  0.875 0.125
c p distribution  0.875 0.125
c p distribution  0.875 0.125
c p distribution  0.875 0.125
c p distribution  0.875 0.125
c p distribution  0.875 0.125
c p distribution  0.875 0.125
c p distribution  0.875 0.125
c p distribution  0.875 0.125
c p distribution  0.875 0.125
c p distribution  0.875 0.125
c p distribution  0.875 0.125
c p distribution  0.875 0.125
c p distribution  0.875 0.125
c p distribution  0.875 0.125
c p distribution  0.875 0.125
c p distribution  0.875 0.125
c p distribution  0.875 0.125
c p distribution  0.875 0.125
c p distribution  0.875 0.125
c p distribution  0.875 0.125
c p distribution  0.875 0.125
c p distribution  0.875 0.125
c p distribution  0.875 0.125
c p distribution  0.875 0.125
c p distribution  0.875 0.125
c p distribution  0.875 0.125
c p distribution  0.875 0.125
c p distribution  0.875 0.125
c p distribution  0.875 0.125
c p distribution  0.875 0.125
c p distribution  0.875 0.125
c p distribution  0.875 0.125
c p distribution  0.875 0.125
c p distribution  0.875 0.125
c p distribution  0.875 0.125
c p distribution  0.875 0.125
c p distribution  0.875 0.125
c p distribution  0.875 0.125
c p distribution  0.875 0.125
c p distribution  0.875 0.125
c p distribution  0.875 0.125
c p distribution  0.875 0.125
c p distribution  0.875 0.125
c p distribution  0.875 0.125
757 0
-669 0
617 -695 -1 0
695 -617 -1 0
661 -720 -3 0
720 -661 -3 0
666 -644 -5 0
644 -666 -5 0
620 -731 -7 0
731 -620 -7 0
733 -638 -9 0
638 -733 -9 0
772 -771 -11 0
771 -772 -11 0
628 -735 -13 0
735 -628 -13 0
717 -606 -15 0
606 -717 -15 0
736 -710 -17 0
710 -736 -17 0
769 -775 -19 0
775 -769 -19 0
716 -722 -21 0
722 -716 -21 0
711 -623 -23 0
623 -711 -23 0
744 -768 -25 0
768 -744 -25 0
630 -747 -27 0
747 -630 -27 0
642 -786 -29 0
786 -642 -29 0
685 -604 -31 0
604 -685 -31 0
718 -645 -33 0
645 -718 -33 0
716 -633 -35 0
633 -716 -35 0
652 -630 -37 0
630 -652 -37 0
770 -786 -39 0
786 -770 -39 0
634 -784 -41 0
784 -634 -41 0
714 -626 -43 0
626 -714 -43 0
686 -709 -45 0
709 -686 -45 0
777 -700 -47 0
700 -777 -47 0
768 -661 -49 0
661 -768 -49 0
802 -697 -51 0
697 -802 -51 0
639 -713 -53 0
713 -639 -53 0
755 -687 -55 0
687 -755 -55 0
678 -701 -57 0
701 -678 -57 0
692 -728 -59 0
728 -692 -59 0
719 -727 -61 0
727 -719 -61 0
772 -610 -63 0
610 -772 -63 0
686 -716 -65 0
716 -686 -65 0
607 -724 -67 0
724 -607 -67 0
791 -711 -69 0
711 -791 -69 0
672 -697 -71 0
697 -672 -71 0
661 -704 -73 0
704 -661 -73 0
729 -651 -75 0
651 -729 -75 0
785 -733 -77 0
733 -785 -77 0
770 -751 -79 0
751 -770 -79 0
742 -671 -81 0
671 -742 -81 0
753 -727 -83 0
727 -753 -83 0
712 -756 -85 0
756 -712 -85 0
607 -724 -87 0
724 -607 -87 0
750 -746 -89 0
746 -750 -89 0
725 -720 -91 0
720 -725 -91 0
667 -674 -93 0
674 -667 -93 0
615 -721 -95 0
721 -615 -95 0
712 -739 -97 0
739 -712 -97 0
659 -665 -99 0
665 -659 -99 0
685 -683 -101 0
683 -685 -101 0
689 -633 -103 0
633 -689 -103 0
793 -643 -105 0
643 -793 -105 0
614 -765 -107 0
765 -614 -107 0
655 -656 -109 0
656 -655 -109 0
628 -735 -111 0
735 -628 -111 0
686 -747 -113 0
747 -686 -113 0
715 -690 -115 0
690 -715 -115 0
801 -794 -117 0
794 -801 -117 0
753 -628 -119 0
628 -753 -119 0
692 -742 -121 0
742 -692 -121 0
784 -755 -123 0
755 -784 -123 0
718 -761 -125 0
761 -718 -125 0
616 -744 -127 0
744 -616 -127 0
630 -716 -129 0
716 -630 -129 0
785 -777 -131 0
777 -785 -131 0
747 -633 -133 0
633 -747 -133 0
646 -792 -135 0
792 -646 -135 0
702 -677 -137 0
677 -702 -137 0
679 -737 -139 0
737 -679 -139 0
662 -745 -141 0
745 -662 -141 0
755 -733 -143 0
733 -755 -143 0
768 -661 -145 0
661 -768 -145 0
683 -805 -147 0
805 -683 -147 0
628 -735 -149 0
735 -628 -149 0
689 -738 -151 0
738 -689 -151 0
758 -783 -153 0
783 -758 -153 0
659 -682 -155 0
682 -659 -155 0
707 -703 -157 0
703 -707 -157 0
733 -638 -159 0
638 -733 -159 0
771 -670 -161 0
670 -771 -161 0
760 -650 -163 0
650 -760 -163 0
733 -748 -165 0
748 -733 -165 0
637 -636 -167 0
636 -637 -167 0
792 -768 -169 0
768 -792 -169 0
698 -691 -171 0
691 -698 -171 0
653 -742 -173 0
742 -653 -173 0
786 -751 -175 0
751 -786 -175 0
710 -623 -177 0
623 -710 -177 0
722 -765 -179 0
765 -722 -179 0
766 -653 -181 0
653 -766 -181 0
609 -681 -183 0
681 -609 -183 0
713 -606 -185 0
606 -713 -185 0
688 -801 -187 0
801 -688 -187 0
748 -773 -189 0
773 -748 -189 0
763 -645 -191 0
645 -763 -191 0
722 -688 -193 0
688 -722 -193 0
791 -674 -195 0
674 -791 -195 0
663 -696 -197 0
696 -663 -197 0
708 -668 -199 0
668 -708 -199 0
778 -652 -201 0
652 -778 -201 0
705 -632 -203 0
632 -705 -203 0
772 -641 -205 0
641 -772 -205 0
749 -794 -207 0
794 -749 -207 0
741 -637 -209 0
637 -741 -209 0
667 -621 -211 0
621 -667 -211 0
693 -752 -213 0
752 -693 -213 0
755 -687 -215 0
687 -755 -215 0
765 -715 -217 0
715 -765 -217 0
628 -619 -219 0
619 -628 -219 0
647 -648 -221 0
648 -647 -221 0
695 -710 -223 0
710 -695 -223 0
722 -716 -225 0
716 -722 -225 0
648 -660 -227 0
660 -648 -227 0
762 -640 -229 0
640 -762 -229 0
715 -781 -231 0
781 -715 -231 0
678 -611 -233 0
611 -678 -233 0
665 -776 -235 0
776 -665 -235 0
709 -781 -237 0
781 -709 -237 0
607 -701 -239 0
701 -607 -239 0
642 -685 -241 0
685 -642 -241 0
750 -743 -243 0
743 -750 -243 0
666 -709 -245 0
709 -666 -245 0
750 -617 -247 0
617 -750 -247 0
778 -667 -249 0
667 -778 -249 0
708 -669 -251 0
669 -708 -251 0
673 -657 -253 0
657 -673 -253 0
629 -669 -255 0
669 -629 -255 0
728 -671 -257 0
671 -728 -257 0
775 -740 -259 0
740 -775 -259 0
774 -672 -261 0
672 -774 -261 0
707 -680 -263 0
680 -707 -263 0
766 -684 -265 0
684 -766 -265 0
796 -682 -267 0
682 -796 -267 0
618 -768 -269 0
768 -618 -269 0
630 -716 -271 0
716 -630 -271 0
628 -752 -273 0
752 -628 -273 0
736 -695 -275 0
695 -736 -275 0
707 -703 -277 0
703 -707 -277 0
658 -803 -279 0
803 -658 -279 0
759 -643 -281 0
643 -759 -281 0
658 -803 -283 0
803 -658 -283 0
607 -799 -285 0
799 -607 -285 0
645 -718 -287 0
718 -645 -287 0
795 -624 -289 0
624 -795 -289 0
791 -711 -291 0
711 -791 -291 0
656 -797 -293 0
797 -656 -293 0
780 -782 -295 0
782 -780 -295 0
628 -641 -297 0
641 -628 -297 0
647 -609 -299 0
609 -647 -299 0
704 -645 -301 0
645 -704 -301 0
637 -721 -303 0
721 -637 -303 0
662 -744 -305 0
744 -662 -305 0
699 -718 -307 0
718 -699 -307 0
773 -661 -309 0
661 -773 -309 0
746 -695 -311 0
695 -746 -311 0
767 -689 -313 0
689 -767 -313 0
726 -640 -315 0
640 -726 -315 0
773 -669 -317 0
669 -773 -317 0
621 -687 -319 0
687 -621 -319 0
768 -734 -321 0
734 -768 -321 0
628 -641 -323 0
641 -628 -323 0
607 -675 -325 0
675 -607 -325 0
746 -807 -327 0
807 -746 -327 0
710 -623 -329 0
623 -710 -329 0
781 -690 -331 0
690 -781 -331 0
672 -728 -333 0
728 -672 -333 0
748 -638 -335 0
638 -748 -335 0
791 -674 -337 0
674 -791 -337 0
793 -787 -339 0
787 -793 -339 0
627 -765 -341 0
765 -627 -341 0
746 -695 -343 0
695 -746 -343 0
667 -674 -345 0
674 -667 -345 0
782 -675 -347 0
675 -782 -347 0
772 -610 -349 0
610 -772 -349 0
696 -621 -351 0
621 -696 -351 0
702 -677 -353 0
677 -702 -353 0
736 -710 -355 0
710 -736 -355 0
663 -696 -357 0
696 -663 -357 0
639 -643 -359 0
643 -639 -359 0
791 -674 -361 0
674 -791 -361 0
785 -777 -363 0
777 -785 -363 0
694 -654 -365 0
654 -694 -365 0
804 -630 -367 0
630 -804 -367 0
807 -741 -369 0
741 -807 -369 0
803 -684 -371 0
684 -803 -371 0
639 -643 -373 0
643 -639 -373 0
628 -627 -375 0
627 -628 -375 0
615 -625 -377 0
625 -615 -377 0
649 -776 -379 0
776 -649 -379 0
710 -623 -381 0
623 -710 -381 0
722 -616 -383 0
616 -722 -383 0
667 -663 -385 0
663 -667 -385 0
715 -765 -387 0
765 -715 -387 0
753 -727 -389 0
727 -753 -389 0
762 -711 -391 0
711 -762 -391 0
691 -740 -393 0
740 -691 -393 0
755 -733 -395 0
733 -755 -395 0
607 -723 -397 0
723 -607 -397 0
692 -774 -399 0
774 -692 -399 0
620 -624 -401 0
624 -620 -401 0
607 -799 -403 0
799 -607 -403 0
723 -724 -405 0
724 -723 -405 0
621 -757 -407 0
757 -621 -407 0
643 -604 -409 0
604 -643 -409 0
688 -654 -411 0
654 -688 -411 0
651 -603 -413 0
603 -651 -413 0
607 -799 -415 0
799 -607 -415 0
680 -752 -417 0
752 -680 -417 0
736 -613 -419 0
613 -736 -419 0
692 -671 -421 0
671 -692 -421 0
733 -687 -423 0
687 -733 -423 0
800 -760 -425 0
760 -800 -425 0
692 -610 -427 0
610 -692 -427 0
743 -753 -429 0
753 -743 -429 0
792 -643 -431 0
643 -792 -431 0
762 -636 -433 0
636 -762 -433 0
746 -617 -435 0
617 -746 -435 0
676 -802 -437 0
802 -676 -437 0
735 -765 -439 0
765 -735 -439 0
717 -706 -441 0
706 -717 -441 0
737 -765 -443 0
765 -737 -443 0
664 -769 -445 0
769 -664 -445 0
607 -608 -447 0
608 -607 -447 0
773 -734 -449 0
734 -773 -449 0
755 -687 -451 0
687 -755 -451 0
667 -722 -453 0
722 -667 -453 0
791 -726 -455 0
726 -791 -455 0
603 -754 -457 0
754 -603 -457 0
659 -632 -459 0
632 -659 -459 0
626 -668 -461 0
668 -626 -461 0
736 -695 -463 0
695 -736 -463 0
714 -788 -465 0
788 -714 -465 0
769 -792 -467 0
792 -769 -467 0
605 -788 -469 0
788 -605 -469 0
787 -740 -471 0
740 -787 -471 0
614 -737 -473 0
737 -614 -473 0
759 -604 -475 0
604 -759 -475 0
686 -781 -477 0
781 -686 -477 0
795 -631 -479 0
631 -795 -479 0
795 -696 -481 0
696 -795 -481 0
607 -650 -483 0
650 -607 -483 0
758 -677 -485 0
677 -758 -485 0
738 -644 -487 0
644 -738 -487 0
605 -627 -489 0
627 -605 -489 0
790 -696 -491 0
696 -790 -491 0
711 -623 -493 0
623 -711 -493 0
708 -616 -495 0
616 -708 -495 0
607 -611 -497 0
611 -607 -497 0
635 -702 -499 0
702 -635 -499 0
667 -663 -501 0
663 -667 -501 0
800 -756 -503 0
756 -800 -503 0
618 -665 -505 0
665 -618 -505 0
757 -797 -507 0
797 -757 -507 0
775 -705 -509 0
705 -775 -509 0
704 -748 -511 0
748 -704 -511 0
692 -802 -513 0
802 -692 -513 0
686 -673 -515 0
673 -686 -515 0
622 -697 -517 0
697 -622 -517 0
722 -768 -519 0
768 -722 -519 0
691 -787 -521 0
787 -691 -521 0
696 -611 -523 0
611 -696 -523 0
711 -623 -525 0
623 -711 -525 0
779 -670 -527 0
670 -779 -527 0
608 -782 -529 0
782 -608 -529 0
716 -644 -531 0
644 -716 -531 0
700 -720 -533 0
720 -700 -533 0
618 -768 -535 0
768 -618 -535 0
804 -652 -537 0
652 -804 -537 0
667 -621 -539 0
621 -667 -539 0
614 -730 -541 0
730 -614 -541 0
807 -732 -543 0
732 -807 -543 0
729 -767 -545 0
767 -729 -545 0
670 -765 -547 0
765 -670 -547 0
734 -665 -549 0
665 -734 -549 0
755 -661 -551 0
661 -755 -551 0
791 -711 -553 0
711 -791 -553 0
651 -635 -555 0
635 -651 -555 0
667 -674 -557 0
674 -667 -557 0
733 -687 -559 0
687 -733 -559 0
793 -643 -561 0
643 -793 -561 0
790 -701 -563 0
701 -790 -563 0
640 -634 -565 0
634 -640 -565 0
622 -672 -567 0
672 -622 -567 0
749 -801 -569 0
801 -749 -569 0
765 -654 -571 0
654 -765 -571 0
622 -789 -573 0
789 -622 -573 0
722 -621 -575 0
621 -722 -575 0
806 -698 -577 0
698 -806 -577 0
705 -664 -579 0
664 -705 -579 0
708 -726 -581 0
726 -708 -581 0
621 -687 -583 0
687 -621 -583 0
733 -784 -585 0
784 -733 -585 0
607 -624 -587 0
624 -607 -587 0
735 -619 -589 0
619 -735 -589 0
802 -764 -591 0
764 -802 -591 0
661 -645 -593 0
645 -661 -593 0
753 -703 -595 0
703 -753 -595 0
718 -645 -597 0
645 -718 -597 0
603 -794 -599 0
794 -603 -599 0
713 -606 -601 0
606 -713 -601 0

